
Gurobi 7.5.2 (linux64) logging started Sat Jul  7 16:17:17 2018

Changed value of parameter LogFile to result/ilp/simNo_6-n_100-m_40-s_4-minVAF_0.05-cov_10000-k_1-fn_0.05-fp_0.0001-na_0.15.ILP.gurobiSolverLog
   Prev: gurobi.log  Default: 
Changed value of parameter TimeLimit to 86400.0
   Prev: 1e+100  Min: 0.0  Max: 1e+100  Default: 1e+100
Optimize a model with 639293 rows, 10765 columns and 1940420 nonzeros
Variable types: 0 continuous, 10765 integer (10765 binary)
Coefficient statistics:
  Matrix range     [5e-04, 4e+00]
  Objective range  [1e-01, 9e+00]
  Bounds range     [1e+00, 1e+00]
  RHS range        [3e-01, 2e+00]
Presolve removed 130675 rows and 1007 columns (presolve time = 5s) ...
Presolve removed 131616 rows and 1007 columns (presolve time = 11s) ...
Presolve removed 132178 rows and 1007 columns (presolve time = 17s) ...
Presolve removed 188378 rows and 1569 columns (presolve time = 20s) ...
Presolve removed 188378 rows and 1569 columns
Presolve time: 24.39s
Presolved: 450915 rows, 9196 columns, 1357463 nonzeros
Variable types: 0 continuous, 9196 integer (9196 binary)
Presolved: 9196 rows, 460111 columns, 1366659 nonzeros

Presolve removed 9196 rows and 460111 columns

Root simplex log...

Iteration    Objective       Primal Inf.    Dual Inf.      Time
       0    3.8142011e+00   0.000000e+00   7.726400e+04     32s
   19224   -2.0685555e+02   0.000000e+00   1.217250e+03     35s
   19944   -2.0813683e+02   0.000000e+00   0.000000e+00     36s
   19944   -2.0813683e+02   0.000000e+00   0.000000e+00     37s

Root relaxation: objective -2.081368e+02, 19944 iterations, 7.94 seconds
Total elapsed time = 66.70s
Total elapsed time = 110.86s
Total elapsed time = 160.11s
Total elapsed time = 178.32s

    Nodes    |    Current Node    |     Objective Bounds      |     Work
 Expl Unexpl |  Obj  Depth IntInf | Incumbent    BestBd   Gap | It/Node Time

     0     0 -208.13683    0  738          - -208.13683      -     -  185s
H    0     0                    -13998.10355 -208.13683  98.5%     -  196s
H    0     0                    -257.7219999 -208.13683  19.2%     -  197s
H    0     0                    -240.4239568 -208.13683  13.4%     -  199s
     0     0 -211.01983    0  744 -240.42396 -211.01983  12.2%     -  227s
     0     0 -211.01983    0  743 -240.42396 -211.01983  12.2%     -  236s
     0     0 -213.92980    0  771 -240.42396 -213.92980  11.0%     -  318s
     0     0 -214.62359    0  771 -240.42396 -214.62359  10.7%     -  369s
     0     0 -214.62359    0  799 -240.42396 -214.62359  10.7%     -  384s
     0     0 -215.99289    0  978 -240.42396 -215.99289  10.2%     -  496s
     0     0 -217.47436    0  830 -240.42396 -217.47436  9.55%     -  686s
     0     0 -220.98352    0  736 -240.42396 -220.98352  8.09%     - 1099s
     0     0 -220.98352    0  736 -240.42396 -220.98352  8.09%     - 1107s
     0     0 -222.42503    0  730 -240.42396 -222.42503  7.49%     - 1308s
     0     0 -222.42503    0  730 -240.42396 -222.42503  7.49%     - 1315s
     0     0 -223.71320    0  757 -240.42396 -223.71320  6.95%     - 1552s
     0     0 -223.72219    0  677 -240.42396 -223.72219  6.95%     - 1565s
     0     0 -224.00685    0  740 -240.42396 -224.00685  6.83%     - 1663s
     0     0 -224.00685    0  772 -240.42396 -224.00685  6.83%     - 1670s
     0     0 -224.00685    0  713 -240.42396 -224.00685  6.83%     - 1683s
     0     0 -224.68319    0  659 -240.42396 -224.68319  6.55%     - 1837s
     0     0 -224.68319    0  657 -240.42396 -224.68319  6.55%     - 1843s
     0     0 -225.39271    0  790 -240.42396 -225.39271  6.25%     - 2104s
H    0     0                    -237.5409496 -225.39271  5.11%     - 2113s
     0     0 -225.39496    0  786 -237.54095 -225.39496  5.11%     - 2119s
     0     0 -225.39496    0  787 -237.54095 -225.39496  5.11%     - 2123s
     0     0 -225.64419    0  673 -237.54095 -225.64419  5.01%     - 2208s
     0     0 -225.64419    0  675 -237.54095 -225.64419  5.01%     - 2218s
     0     0 -226.44265    0  616 -237.54095 -226.44265  4.67%     - 2262s
     0     0 -226.91659    0  766 -237.54095 -226.91659  4.47%     - 2545s
     0     0 -227.07671    0  761 -237.54095 -227.07671  4.41%     - 2578s
     0     0 -227.07671    0  762 -237.54095 -227.07671  4.41%     - 2582s
     0     0 -227.07671    0  773 -237.54095 -227.07671  4.41%     - 2594s
     0     0 -227.07671    0  771 -237.54095 -227.07671  4.41%     - 2601s
     0     0 -227.07671    0  772 -237.54095 -227.07671  4.41%     - 2610s
     0     0 -227.07671    0  773 -237.54095 -227.07671  4.41%     - 2617s
     0     0 -227.07671    0  714 -237.54095 -227.07671  4.41%     - 3322s
     0     0 -227.07671    0  730 -237.54095 -227.07671  4.41%     - 3333s
     0     0 -227.49048    0  670 -237.54095 -227.49048  4.23%     - 3721s
     0     0 -227.54823    0  651 -237.54095 -227.54823  4.21%     - 3732s
     0     0 -227.54823    0  655 -237.54095 -227.54823  4.21%     - 3735s
     0     0 -227.54823    0  660 -237.54095 -227.54823  4.21%     - 3744s
     0     0 -227.54823    0  655 -237.54095 -227.54823  4.21%     - 3751s
     0     0 -227.54823    0  660 -237.54095 -227.54823  4.21%     - 3760s
     0     0 -227.54823    0  661 -237.54095 -227.54823  4.21%     - 3766s
     0     0 -227.56620    0  628 -237.54095 -227.56620  4.20%     - 4008s
     0     0 -227.56620    0  627 -237.54095 -227.56620  4.20%     - 4015s
     0     0 -228.25920    0  679 -237.54095 -228.25920  3.91%     - 4461s
     0     0 -228.26459    0  756 -237.54095 -228.26459  3.91%     - 4472s
     0     0 -228.26459    0  775 -237.54095 -228.26459  3.91%     - 4475s
     0     0 -228.26459    0  788 -237.54095 -228.26459  3.91%     - 4485s
     0     0 -228.26459    0  793 -237.54095 -228.26459  3.91%     - 4492s
     0     0 -228.46033    0  688 -237.54095 -228.46033  3.82%     - 4745s
     0     0 -228.50923    0  673 -237.54095 -228.50923  3.80%     - 4755s
     0     0 -228.50923    0  676 -237.54095 -228.50923  3.80%     - 4758s
     0     0 -228.50923    0  588 -237.54095 -228.50923  3.80%     - 4897s
     0     0 -228.50923    0  710 -237.54095 -228.50923  3.80%     - 4990s
     0     0 -228.50923    0  731 -237.54095 -228.50923  3.80%     - 4997s
     0     0 -228.50923    0  649 -237.54095 -228.50923  3.80%     - 5000s
     0     0 -228.50923    0  647 -237.54095 -228.50923  3.80%     - 5000s
     0     0 -229.24628    0  622 -237.54095 -229.24628  3.49%     - 5006s
     0     0 -229.24628    0  583 -237.54095 -229.24628  3.49%     - 5014s
     0     0 -229.24628    0  531 -237.54095 -229.24628  3.49%     - 5017s
     0     0 -229.31290    0  540 -237.54095 -229.31290  3.46%     - 5018s
     0     0 -229.32565    0  525 -237.54095 -229.32565  3.46%     - 5018s
     0     0 -229.90183    0  513 -237.54095 -229.90183  3.22%     - 5019s
     0     0 -229.90183    0  513 -237.54095 -229.90183  3.22%     - 5020s
     0     0 -229.95073    0  508 -237.54095 -229.95073  3.20%     - 5020s
     0     0 -229.95073    0  505 -237.54095 -229.95073  3.20%     - 5021s
     0     0 -229.95073    0  512 -237.54095 -229.95073  3.20%     - 5021s
     0     0 -229.95073    0  513 -237.54095 -229.95073  3.20%     - 5022s
     0     0 -229.95073    0  428 -237.54095 -229.95073  3.20%     - 5026s
     0     0 -229.95073    0  484 -237.54095 -229.95073  3.20%     - 5027s
     0     0 -229.95073    0  456 -237.54095 -229.95073  3.20%     - 5032s
     0     0 -229.95073    0  459 -237.54095 -229.95073  3.20%     - 5032s
     0     0 -229.95073    0  405 -237.54095 -229.95073  3.20%     - 5037s
     0     0 -229.95073    0  473 -237.54095 -229.95073  3.20%     - 5037s
     0     0 -229.95073    0  421 -237.54095 -229.95073  3.20%     - 5042s
     0     0 -229.95073    0  488 -237.54095 -229.95073  3.20%     - 5042s
     0     0 -229.95073    0  423 -237.54095 -229.95073  3.20%     - 5045s
     0     0 -229.95073    0  423 -237.54095 -229.95073  3.20%     - 5057s
     0     2 -230.04853    0  423 -237.54095 -230.04853  3.15%     - 5061s
    18     8 -236.57995   10  315 -237.54095 -231.00953  2.75%   135 5065s

Cutting planes:
  Gomory: 5
  Implied bound: 11
  Clique: 2
  Zero half: 52

Explored 45 nodes (313756 simplex iterations) in 5068.26 seconds
Thread count was 1 (of 80 available processors)

Solution count 6: -237.541 -237.541 -237.541 ... -13998.1

Optimal solution found (tolerance 1.00e-04)
Best objective -2.375409496375e+02, best bound -2.375409496375e+02, gap 0.0000%
